p cnf 12 30
a 2 3 4 6 0
e 9 1 5 7 8 10 11 12 0
1 -2 0
-3 1 0
2 3 -1 0
4 5 0
6 5 0
-4 -6 -5 0
-4 7 0
-6 7 0
4 6 -7 0
2 8 0
3 8 0
-3 -8 -2 0
9 10 0
-1 10 -5 -8 -7 0
-9 -10 8 0
-9 -10 7 0
-9 -10 5 0
-9 -10 1 0
4 -11 -6 0
-11 6 -4 0
11 -4 -6 0
11 4 6 0
-12 -2 -3 0
2 3 -12 0
12 2 -3 0
3 12 -2 0
-10 11 12 0
-11 12 10 0
-12 11 10 0
-11 -10 -12 0 
